36827720282263111745015,7,1,2,09,9,1,2,02,12,1,2,07,10,1,2,015,7,1,2,012,2,1,2,05,6,1,2,08,11,1,2,08,3,1,2,07,5,1,2,03,11,1,2,09,13,1,2,015,8,1,2,06,4,1,2,013,11,1,2,012,6,1,2,07,7,1,2,014,10,1,2,011,6,1,2,02,2,1,2,010,4,1,2,07,2,1,2,05,3,1,2,09,7,1,2,09,9,1,2,03,8,1,2,08,5,1,2,04,1,1,2,06,13,1,2,04,12,1,2,013,6,1,2,08,3,1,2,014,12,1,2,03,12,1,2,06,12,1,2,07,4,1,2,010,13,1,2,014,10,1,2,014,1,1,2,04,14,1,2,012,12,1,2,012,15,1,2,013,3,1,2,04,3,1,2,010,1,1,2,015,3,1,2,09,5,1,2,012,9,1,2,015,13,1,2,05,4,1,2,0